\* The Best Team *\
Maximize
OBJ: 8.3 ID_nfl.p.24035 + 1.9 ID_nfl.p.24063 + 4.5 ID_nfl.p.24070
 + 11.2 ID_nfl.p.24793 + 12.6 ID_nfl.p.24815 + 4.1 ID_nfl.p.24822
 + 4.4 ID_nfl.p.24830 + 5.2 ID_nfl.p.24851 + 1.7 ID_nfl.p.24891
 + 3.5 ID_nfl.p.24913 + 1.7 ID_nfl.p.24923 + 5.8 ID_nfl.p.24936
 + 1.8 ID_nfl.p.24946 + 2.8 ID_nfl.p.24961 + 1.9 ID_nfl.p.25158
 + ID_nfl.p.25712 + 14.9 ID_nfl.p.25718 + 15 ID_nfl.p.25812
 + 3.5 ID_nfl.p.25828 + 3.3 ID_nfl.p.25838 + 10.3 ID_nfl.p.25876
 + 7.3 ID_nfl.p.26060 + 1.2 ID_nfl.p.26535 + 3.2 ID_nfl.p.26631
 + 3.1 ID_nfl.p.26644 + 3.6 ID_nfl.p.26652 + 5.2 ID_nfl.p.26660
 + 8.3 ID_nfl.p.26664 + 5 ID_nfl.p.26678 + 9.2 ID_nfl.p.26686 + ID_nfl.p.26721
 + 9.4 ID_nfl.p.26804 + 3.7 ID_nfl.p.26824 + 3.1 ID_nfl.p.26950
 + 2.1 ID_nfl.p.27135 + 2.8 ID_nfl.p.27174 + 5 ID_nfl.p.27299
 + 7.9 ID_nfl.p.27532 + 11.4 ID_nfl.p.27535 + 5.9 ID_nfl.p.27538
 + 9.9 ID_nfl.p.27540 + 0.7 ID_nfl.p.27560 + 10.9 ID_nfl.p.27581
 + 4.3 ID_nfl.p.27584 + 10.4 ID_nfl.p.27589 + 7.7 ID_nfl.p.27591
 + 1.8 ID_nfl.p.27618 + 9.7 ID_nfl.p.27619 + 9.6 ID_nfl.p.27631
 + 2.3 ID_nfl.p.27648 + 4 ID_nfl.p.27789 + 3.2 ID_nfl.p.27826
 + 4.7 ID_nfl.p.27874 + 4.4 ID_nfl.p.28026 + 5.2 ID_nfl.p.28046
 + 9.1 ID_nfl.p.28115 + 3 ID_nfl.p.28214 + 6 ID_nfl.p.28234 + 4 ID_nfl.p.28267
 + 1.1 ID_nfl.p.28365 + 19.6 ID_nfl.p.28389 + 1.7 ID_nfl.p.28390
 + 11.4 ID_nfl.p.28398 + 7.8 ID_nfl.p.28402 + 4.2 ID_nfl.p.28414
 + 0.9 ID_nfl.p.28424 + 1.3 ID_nfl.p.28425 + 2.8 ID_nfl.p.28442
 + 2.7 ID_nfl.p.28443 + 2.6 ID_nfl.p.28473 + 9.6 ID_nfl.p.28474
 + 4 ID_nfl.p.28482 + 7.7 ID_nfl.p.28493 + 2.8 ID_nfl.p.28495
 + 1.4 ID_nfl.p.28505 + 1.4 ID_nfl.p.28513 + 2.7 ID_nfl.p.28514
 + 1.1 ID_nfl.p.28531 + 10.7 ID_nfl.p.28534 + 2.5 ID_nfl.p.28545
 + 2.2 ID_nfl.p.28548 + 2.8 ID_nfl.p.28559 + 2.6 ID_nfl.p.28730
 + 2.2 ID_nfl.p.28800 + 2.2 ID_nfl.p.28887 + 3.1 ID_nfl.p.28974
 + 3 ID_nfl.p.28990 + 6.1 ID_nfl.p.29070 + 15.5 ID_nfl.p.29235
 + 16.6 ID_nfl.p.29238 + 4.2 ID_nfl.p.29257 + 14.3 ID_nfl.p.29279
 + 12.7 ID_nfl.p.29281 + 7.6 ID_nfl.p.29288 + 8.3 ID_nfl.p.29307
 + 7.6 ID_nfl.p.29315 + 1.9 ID_nfl.p.29328 + 2.8 ID_nfl.p.29344
 + 3.1 ID_nfl.p.29351 + 4.7 ID_nfl.p.29360 + 18 ID_nfl.p.29369
 + 3.9 ID_nfl.p.29374 + 3.3 ID_nfl.p.29383 + 15.2 ID_nfl.p.29399
 + 2.7 ID_nfl.p.29406 + 4.4 ID_nfl.p.29420 + 1.6 ID_nfl.p.29431
 + 1.6 ID_nfl.p.29470 + 6.4 ID_nfl.p.29560 + 6.7 ID_nfl.p.29609
 + 2.5 ID_nfl.p.29631 + 7.2 ID_nfl.p.29650 + 1.6 ID_nfl.p.29666
 + 4.8 ID_nfl.p.29703 + 5 ID_nfl.p.29719 + 7.8 ID_nfl.p.29785
 + 2.4 ID_nfl.p.29906 + ID_nfl.p.29913 + 2.4 ID_nfl.p.29951
 + 2.8 ID_nfl.p.29958 + 2.2 ID_nfl.p.29973 + 4.1 ID_nfl.p.30023
 + 2 ID_nfl.p.30112 + 14.8 ID_nfl.p.30115 + 5.9 ID_nfl.p.30118
 + 19.4 ID_nfl.p.30121 + 20.3 ID_nfl.p.30123 + 5.4 ID_nfl.p.30132
 + 8.3 ID_nfl.p.30153 + 17.4 ID_nfl.p.30154 + 6.1 ID_nfl.p.30157
 + 2.3 ID_nfl.p.30158 + 9.1 ID_nfl.p.30161 + 13.6 ID_nfl.p.30180
 + 11.2 ID_nfl.p.30182 + 1.2 ID_nfl.p.30185 + 11.5 ID_nfl.p.30197
 + 6.5 ID_nfl.p.30199 + 10.8 ID_nfl.p.30209 + 5.8 ID_nfl.p.30213
 + 7.5 ID_nfl.p.30230 + 7.5 ID_nfl.p.30232 + 2.1 ID_nfl.p.30246
 + 8.8 ID_nfl.p.30247 + 3.1 ID_nfl.p.30253 + 14.2 ID_nfl.p.30256
 + 0.8 ID_nfl.p.30263 + 4.4 ID_nfl.p.30269 + 3.6 ID_nfl.p.30285
 + 15.9 ID_nfl.p.30295 + 2.6 ID_nfl.p.30305 + 1.3 ID_nfl.p.30487
 + 7.9 ID_nfl.p.30502 + 2.4 ID_nfl.p.30571 + 12.6 ID_nfl.p.30614
 + 1.3 ID_nfl.p.30627 + 2.8 ID_nfl.p.30656 + ID_nfl.p.30777
 + 2.9 ID_nfl.p.30784 + 7.3 ID_nfl.p.30850 + 5.5 ID_nfl.p.30860
 + 1.8 ID_nfl.p.30891 + 1.8 ID_nfl.p.30959 + 13.2 ID_nfl.p.30971
 + 17.5 ID_nfl.p.30972 + 14.8 ID_nfl.p.30973 + 16.5 ID_nfl.p.30977
 + ID_nfl.p.30980 + 8.7 ID_nfl.p.30994 + 3.1 ID_nfl.p.30995
 + 8.4 ID_nfl.p.30996 + 14.5 ID_nfl.p.31005 + 9.6 ID_nfl.p.31008
 + 4.7 ID_nfl.p.31012 + 8.7 ID_nfl.p.31017 + 5.4 ID_nfl.p.31021
 + 5.4 ID_nfl.p.31030 + 13 ID_nfl.p.31046 + 8.8 ID_nfl.p.31051
 + 8.2 ID_nfl.p.31056 + 3.6 ID_nfl.p.31061 + 1.5 ID_nfl.p.31071
 + 5.9 ID_nfl.p.31074 + 4.3 ID_nfl.p.31075 + 1.4 ID_nfl.p.31093
 + 8.3 ID_nfl.p.31100 + ID_nfl.p.31107 + 1.4 ID_nfl.p.31114
 + 0.8 ID_nfl.p.31127 + 11 ID_nfl.p.31135 + 5.1 ID_nfl.p.31139
 + 6.4 ID_nfl.p.31144 + 0.9 ID_nfl.p.31145 + 3.7 ID_nfl.p.31155
 + 5.3 ID_nfl.p.31164 + 2.3 ID_nfl.p.31178 + 1.8 ID_nfl.p.31180
 + 2.3 ID_nfl.p.31194 + 1.6 ID_nfl.p.31207 + 6.7 ID_nfl.p.31223
 + 1.2 ID_nfl.p.31228 + 2.3 ID_nfl.p.31257 + 5.4 ID_nfl.p.31268
 + 13.4 ID_nfl.p.31301 + 3.1 ID_nfl.p.31302 + 2.8 ID_nfl.p.31320
 + 7.3 ID_nfl.p.31424 + 2.7 ID_nfl.p.31457 + 1.9 ID_nfl.p.31496
 + 3.4 ID_nfl.p.31500 + 3.8 ID_nfl.p.31588 + 3 ID_nfl.p.31601
 + 1.2 ID_nfl.p.31749 + 1.6 ID_nfl.p.31769 + 19.5 ID_nfl.p.31833
 + 15.4 ID_nfl.p.31838 + 5.5 ID_nfl.p.31840 + 4.3 ID_nfl.p.31882
 + 7.6 ID_nfl.p.31883 + 1.5 ID_nfl.p.31884 + 5.1 ID_nfl.p.31888
 + 3.6 ID_nfl.p.31894 + 7.5 ID_nfl.p.31898 + 7.3 ID_nfl.p.31902
 + 12.2 ID_nfl.p.31905 + 11.1 ID_nfl.p.31906 + 1.3 ID_nfl.p.31907
 + 4.1 ID_nfl.p.31925 + 4.1 ID_nfl.p.31928 + 6.3 ID_nfl.p.31934
 + 12.9 ID_nfl.p.31936 + 3.6 ID_nfl.p.31945 + ID_nfl.p.31958
 + 3.9 ID_nfl.p.31960 + 1.1 ID_nfl.p.31984 + 1.7 ID_nfl.p.31986
 + 7.4 ID_nfl.p.32003 + 4.3 ID_nfl.p.32006 + 1.3 ID_nfl.p.32008
 + 0.8 ID_nfl.p.32014 + 8.1 ID_nfl.p.32018 + 2.6 ID_nfl.p.32040
 + 0.9 ID_nfl.p.32046 + 5 ID_nfl.p.32066 + 5.8 ID_nfl.p.32079
 + 1.9 ID_nfl.p.32123 + 3.2 ID_nfl.p.32292 + 2.4 ID_nfl.p.32398
 + 3.1 ID_nfl.p.32439 + 1.6 ID_nfl.p.32559 + 1.2 ID_nfl.p.32608
 + 20.8 ID_nfl.p.5479 + 4.5 ID_nfl.p.6405 + ID_nfl.p.6760 + 7.5 ID_nfl.p.6762
 + 0.7 ID_nfl.p.6849 + 18.6 ID_nfl.p.7200 + 8.1 ID_nfl.p.7241
 + 13.6 ID_nfl.p.7426 + 2.1 ID_nfl.p.7777 + 7.4 ID_nfl.p.8263
 + 7.6 ID_nfl.p.8285 + 4.5 ID_nfl.p.8544 + 16.5 ID_nfl.p.8780
 + 6.3 ID_nfl.p.9037 + 8 ID_nfl.p.9317 + 4.8 ID_nfl.p.9353
 + 13.2 ID_nfl.p.9547 + 6.2 ID_nfl.t.1 + 6.2 ID_nfl.t.10 + 8.8 ID_nfl.t.11
 + 7.3 ID_nfl.t.12 + 8 ID_nfl.t.14 + 6.2 ID_nfl.t.15 + 7 ID_nfl.t.16
 + 8.8 ID_nfl.t.18 + 7.6 ID_nfl.t.19 + 8.6 ID_nfl.t.2 + 7 ID_nfl.t.20
 + 6.9 ID_nfl.t.22 + 7.4 ID_nfl.t.23 + 7 ID_nfl.t.27 + 6.6 ID_nfl.t.29
 + 7.9 ID_nfl.t.3 + 9 ID_nfl.t.33 + 6.1 ID_nfl.t.4 + 7.8 ID_nfl.t.5
 + 7.1 ID_nfl.t.6 + 7.6 ID_nfl.t.8 + 7.1 ID_nfl.t.9
Subject To
_C1: 19 ID_nfl.p.24035 + 10 ID_nfl.p.24063 + 16 ID_nfl.p.24070
 + 30 ID_nfl.p.24793 + 25 ID_nfl.p.24815 + 20 ID_nfl.p.24822
 + 10 ID_nfl.p.24830 + 12 ID_nfl.p.24851 + 10 ID_nfl.p.24891
 + 10 ID_nfl.p.24913 + 10 ID_nfl.p.24923 + 10 ID_nfl.p.24936
 + 10 ID_nfl.p.24946 + 13 ID_nfl.p.24961 + 10 ID_nfl.p.25158
 + 10 ID_nfl.p.25370 + 20 ID_nfl.p.25712 + 26 ID_nfl.p.25718
 + 28 ID_nfl.p.25812 + 10 ID_nfl.p.25828 + 10 ID_nfl.p.25838
 + 17 ID_nfl.p.25876 + 10 ID_nfl.p.26016 + 10 ID_nfl.p.26050
 + 14 ID_nfl.p.26060 + 10 ID_nfl.p.26535 + 20 ID_nfl.p.26547
 + 10 ID_nfl.p.26631 + 10 ID_nfl.p.26644 + 10 ID_nfl.p.26652
 + 10 ID_nfl.p.26660 + 17 ID_nfl.p.26664 + 12 ID_nfl.p.26678
 + 24 ID_nfl.p.26686 + 20 ID_nfl.p.26721 + 19 ID_nfl.p.26804
 + 10 ID_nfl.p.26805 + 11 ID_nfl.p.26824 + 20 ID_nfl.p.26949
 + 10 ID_nfl.p.26950 + 10 ID_nfl.p.27135 + 10 ID_nfl.p.27174
 + 14 ID_nfl.p.27299 + 10 ID_nfl.p.27494 + 20 ID_nfl.p.27531
 + 18 ID_nfl.p.27532 + 32 ID_nfl.p.27535 + 15 ID_nfl.p.27538
 + 22 ID_nfl.p.27540 + 27 ID_nfl.p.27560 + 28 ID_nfl.p.27581
 + 10 ID_nfl.p.27584 + 20 ID_nfl.p.27589 + 14 ID_nfl.p.27591
 + 10 ID_nfl.p.27618 + 18 ID_nfl.p.27619 + 13 ID_nfl.p.27631
 + 10 ID_nfl.p.27648 + 10 ID_nfl.p.27670 + 20 ID_nfl.p.27711
 + 20 ID_nfl.p.27742 + 10 ID_nfl.p.27789 + 10 ID_nfl.p.27826
 + 10 ID_nfl.p.27874 + 13 ID_nfl.p.28026 + 12 ID_nfl.p.28046
 + 18 ID_nfl.p.28115 + 10 ID_nfl.p.28141 + 10 ID_nfl.p.28214
 + 10 ID_nfl.p.28223 + 14 ID_nfl.p.28234 + 13 ID_nfl.p.28267
 + 10 ID_nfl.p.28365 + 31 ID_nfl.p.28389 + 20 ID_nfl.p.28390
 + 24 ID_nfl.p.28398 + 13 ID_nfl.p.28402 + 10 ID_nfl.p.28414
 + 10 ID_nfl.p.28424 + 10 ID_nfl.p.28425 + 10 ID_nfl.p.28442
 + 10 ID_nfl.p.28443 + 10 ID_nfl.p.28456 + 10 ID_nfl.p.28473
 + 19 ID_nfl.p.28474 + 20 ID_nfl.p.28477 + 10 ID_nfl.p.28482
 + 14 ID_nfl.p.28493 + 10 ID_nfl.p.28495 + 10 ID_nfl.p.28505
 + 10 ID_nfl.p.28513 + 10 ID_nfl.p.28514 + 10 ID_nfl.p.28531
 + 25 ID_nfl.p.28534 + 20 ID_nfl.p.28535 + 10 ID_nfl.p.28545
 + 10 ID_nfl.p.28548 + 10 ID_nfl.p.28559 + 10 ID_nfl.p.28718
 + 10 ID_nfl.p.28730 + 10 ID_nfl.p.28800 + 10 ID_nfl.p.28887
 + 10 ID_nfl.p.28974 + 12 ID_nfl.p.28990 + 10 ID_nfl.p.29070
 + 10 ID_nfl.p.29102 + 31 ID_nfl.p.29235 + 30 ID_nfl.p.29238
 + 10 ID_nfl.p.29257 + 20 ID_nfl.p.29260 + 23 ID_nfl.p.29279
 + 37 ID_nfl.p.29281 + 16 ID_nfl.p.29288 + 17 ID_nfl.p.29307
 + 25 ID_nfl.p.29315 + 10 ID_nfl.p.29328 + 10 ID_nfl.p.29344
 + 10 ID_nfl.p.29351 + 11 ID_nfl.p.29360 + 35 ID_nfl.p.29369
 + 10 ID_nfl.p.29374 + 10 ID_nfl.p.29383 + 10 ID_nfl.p.29390
 + 32 ID_nfl.p.29399 + 10 ID_nfl.p.29406 + 10 ID_nfl.p.29420
 + 10 ID_nfl.p.29431 + 10 ID_nfl.p.29433 + 10 ID_nfl.p.29440
 + 20 ID_nfl.p.29441 + 10 ID_nfl.p.29470 + 12 ID_nfl.p.29560
 + 12 ID_nfl.p.29609 + 10 ID_nfl.p.29631 + 12 ID_nfl.p.29650
 + 10 ID_nfl.p.29666 + 10 ID_nfl.p.29700 + 12 ID_nfl.p.29703
 + 11 ID_nfl.p.29719 + 18 ID_nfl.p.29785 + 10 ID_nfl.p.29906
 + 10 ID_nfl.p.29913 + 10 ID_nfl.p.29951 + 10 ID_nfl.p.29958
 + 10 ID_nfl.p.29973 + 10 ID_nfl.p.30023 + 10 ID_nfl.p.30112
 + 20 ID_nfl.p.30115 + 13 ID_nfl.p.30118 + 41 ID_nfl.p.30121
 + 39 ID_nfl.p.30123 + 14 ID_nfl.p.30132 + 15 ID_nfl.p.30153
 + 35 ID_nfl.p.30154 + 14 ID_nfl.p.30157 + 10 ID_nfl.p.30158
 + 13 ID_nfl.p.30161 + 30 ID_nfl.p.30180 + 30 ID_nfl.p.30182
 + 10 ID_nfl.p.30185 + 29 ID_nfl.p.30197 + 15 ID_nfl.p.30199
 + 24 ID_nfl.p.30209 + 12 ID_nfl.p.30213 + 10 ID_nfl.p.30219
 + 10 ID_nfl.p.30230 + 15 ID_nfl.p.30232 + 10 ID_nfl.p.30246
 + 17 ID_nfl.p.30247 + 12 ID_nfl.p.30253 + 26 ID_nfl.p.30256
 + 10 ID_nfl.p.30263 + 10 ID_nfl.p.30269 + 10 ID_nfl.p.30285
 + 10 ID_nfl.p.30292 + 31 ID_nfl.p.30295 + 10 ID_nfl.p.30305
 + 10 ID_nfl.p.30373 + 10 ID_nfl.p.30487 + 17 ID_nfl.p.30502
 + 10 ID_nfl.p.30523 + 10 ID_nfl.p.30571 + 10 ID_nfl.p.30577
 + 10 ID_nfl.p.30592 + 20 ID_nfl.p.30614 + 10 ID_nfl.p.30627
 + 10 ID_nfl.p.30656 + 10 ID_nfl.p.30777 + 10 ID_nfl.p.30784
 + 20 ID_nfl.p.30788 + 13 ID_nfl.p.30850 + 10 ID_nfl.p.30860
 + 10 ID_nfl.p.30891 + 10 ID_nfl.p.30959 + 23 ID_nfl.p.30971
 + 37 ID_nfl.p.30972 + 24 ID_nfl.p.30973 + 28 ID_nfl.p.30977
 + 20 ID_nfl.p.30980 + 16 ID_nfl.p.30994 + 10 ID_nfl.p.30995
 + 21 ID_nfl.p.30996 + 27 ID_nfl.p.31005 + 15 ID_nfl.p.31008
 + 11 ID_nfl.p.31012 + 16 ID_nfl.p.31017 + 10 ID_nfl.p.31021
 + 11 ID_nfl.p.31030 + 22 ID_nfl.p.31046 + 21 ID_nfl.p.31051
 + 21 ID_nfl.p.31056 + 13 ID_nfl.p.31061 + 10 ID_nfl.p.31071
 + 13 ID_nfl.p.31074 + 10 ID_nfl.p.31075 + 10 ID_nfl.p.31093
 + 10 ID_nfl.p.31100 + 10 ID_nfl.p.31102 + 10 ID_nfl.p.31107
 + 10 ID_nfl.p.31114 + 10 ID_nfl.p.31127 + 20 ID_nfl.p.31135
 + 13 ID_nfl.p.31139 + 12 ID_nfl.p.31144 + 10 ID_nfl.p.31145
 + 10 ID_nfl.p.31148 + 10 ID_nfl.p.31155 + 10 ID_nfl.p.31164
 + 10 ID_nfl.p.31178 + 10 ID_nfl.p.31180 + 10 ID_nfl.p.31194
 + 10 ID_nfl.p.31207 + 15 ID_nfl.p.31223 + 10 ID_nfl.p.31228
 + 10 ID_nfl.p.31257 + 11 ID_nfl.p.31268 + 23 ID_nfl.p.31301
 + 10 ID_nfl.p.31302 + 10 ID_nfl.p.31320 + 10 ID_nfl.p.31347
 + 13 ID_nfl.p.31424 + 20 ID_nfl.p.31431 + 10 ID_nfl.p.31457
 + 10 ID_nfl.p.31496 + 10 ID_nfl.p.31500 + 10 ID_nfl.p.31519
 + 10 ID_nfl.p.31557 + 10 ID_nfl.p.31588 + 10 ID_nfl.p.31601
 + 10 ID_nfl.p.31749 + 10 ID_nfl.p.31769 + 28 ID_nfl.p.31833
 + 27 ID_nfl.p.31838 + 11 ID_nfl.p.31840 + 12 ID_nfl.p.31882
 + 13 ID_nfl.p.31883 + 10 ID_nfl.p.31884 + 14 ID_nfl.p.31888
 + 10 ID_nfl.p.31894 + 14 ID_nfl.p.31898 + 10 ID_nfl.p.31902
 + 20 ID_nfl.p.31905 + 19 ID_nfl.p.31906 + 10 ID_nfl.p.31907
 + 10 ID_nfl.p.31925 + 10 ID_nfl.p.31928 + 20 ID_nfl.p.31932
 + 15 ID_nfl.p.31934 + 20 ID_nfl.p.31936 + 10 ID_nfl.p.31945
 + 10 ID_nfl.p.31953 + 10 ID_nfl.p.31958 + 11 ID_nfl.p.31960
 + 10 ID_nfl.p.31973 + 10 ID_nfl.p.31984 + 10 ID_nfl.p.31986
 + 15 ID_nfl.p.32003 + 12 ID_nfl.p.32006 + 10 ID_nfl.p.32008
 + 10 ID_nfl.p.32014 + 12 ID_nfl.p.32018 + 10 ID_nfl.p.32026
 + 20 ID_nfl.p.32029 + 10 ID_nfl.p.32040 + 10 ID_nfl.p.32046
 + 10 ID_nfl.p.32060 + 10 ID_nfl.p.32065 + 10 ID_nfl.p.32066
 + 11 ID_nfl.p.32079 + 10 ID_nfl.p.32123 + 10 ID_nfl.p.32141
 + 20 ID_nfl.p.32272 + 10 ID_nfl.p.32273 + 10 ID_nfl.p.32292
 + 10 ID_nfl.p.32398 + 10 ID_nfl.p.32439 + 20 ID_nfl.p.32464
 + 10 ID_nfl.p.32469 + 10 ID_nfl.p.32523 + 10 ID_nfl.p.32556
 + 10 ID_nfl.p.32559 + 20 ID_nfl.p.32581 + 10 ID_nfl.p.32608
 + 34 ID_nfl.p.5479 + 12 ID_nfl.p.6405 + 20 ID_nfl.p.6760 + 15 ID_nfl.p.6762
 + 23 ID_nfl.p.6849 + 35 ID_nfl.p.7200 + 12 ID_nfl.p.7241 + 21 ID_nfl.p.7426
 + 10 ID_nfl.p.7777 + 15 ID_nfl.p.8263 + 13 ID_nfl.p.8285 + 10 ID_nfl.p.8497
 + 27 ID_nfl.p.8544 + 31 ID_nfl.p.8780 + 20 ID_nfl.p.8834 + 13 ID_nfl.p.9037
 + 14 ID_nfl.p.9317 + 13 ID_nfl.p.9353 + 25 ID_nfl.p.9547 + 22 ID_nfl.p.9678
 + 10 ID_nfl.t.1 + 14 ID_nfl.t.10 + 14 ID_nfl.t.11 + 17 ID_nfl.t.12
 + 17 ID_nfl.t.14 + 10 ID_nfl.t.15 + 13 ID_nfl.t.16 + 19 ID_nfl.t.18
 + 18 ID_nfl.t.19 + 18 ID_nfl.t.2 + 14 ID_nfl.t.20 + 13 ID_nfl.t.22
 + 19 ID_nfl.t.23 + 14 ID_nfl.t.27 + 18 ID_nfl.t.29 + 19 ID_nfl.t.3
 + 13 ID_nfl.t.33 + 10 ID_nfl.t.4 + 13 ID_nfl.t.5 + 12 ID_nfl.t.6
 + 13 ID_nfl.t.8 + 15 ID_nfl.t.9 <= 200
_C10: ID_nfl.p.24035 + ID_nfl.p.24063 + ID_nfl.p.24070 + ID_nfl.p.24793
 + ID_nfl.p.24815 + ID_nfl.p.24822 + ID_nfl.p.24830 + ID_nfl.p.24851
 + ID_nfl.p.24891 + ID_nfl.p.24913 + ID_nfl.p.24923 + ID_nfl.p.24936
 + ID_nfl.p.24946 + ID_nfl.p.24961 + ID_nfl.p.25158 + ID_nfl.p.25370
 + ID_nfl.p.25712 + ID_nfl.p.25718 + ID_nfl.p.25812 + ID_nfl.p.25828
 + ID_nfl.p.25838 + ID_nfl.p.25876 + ID_nfl.p.26016 + ID_nfl.p.26050
 + ID_nfl.p.26060 + ID_nfl.p.26535 + ID_nfl.p.26547 + ID_nfl.p.26631
 + ID_nfl.p.26644 + ID_nfl.p.26652 + ID_nfl.p.26660 + ID_nfl.p.26664
 + ID_nfl.p.26678 + ID_nfl.p.26686 + ID_nfl.p.26721 + ID_nfl.p.26804
 + ID_nfl.p.26805 + ID_nfl.p.26824 + ID_nfl.p.26949 + ID_nfl.p.26950
 + ID_nfl.p.27135 + ID_nfl.p.27174 + ID_nfl.p.27299 + ID_nfl.p.27494
 + ID_nfl.p.27531 + ID_nfl.p.27532 + ID_nfl.p.27535 + ID_nfl.p.27538
 + ID_nfl.p.27540 + ID_nfl.p.27560 + ID_nfl.p.27581 + ID_nfl.p.27584
 + ID_nfl.p.27589 + ID_nfl.p.27591 + ID_nfl.p.27618 + ID_nfl.p.27619
 + ID_nfl.p.27631 + ID_nfl.p.27648 + ID_nfl.p.27670 + ID_nfl.p.27711
 + ID_nfl.p.27742 + ID_nfl.p.27789 + ID_nfl.p.27826 + ID_nfl.p.27874
 + ID_nfl.p.28026 + ID_nfl.p.28046 + ID_nfl.p.28115 + ID_nfl.p.28141
 + ID_nfl.p.28214 + ID_nfl.p.28223 + ID_nfl.p.28234 + ID_nfl.p.28267
 + ID_nfl.p.28365 + ID_nfl.p.28389 + ID_nfl.p.28390 + ID_nfl.p.28398
 + ID_nfl.p.28402 + ID_nfl.p.28414 + ID_nfl.p.28424 + ID_nfl.p.28425
 + ID_nfl.p.28442 + ID_nfl.p.28443 + ID_nfl.p.28456 + ID_nfl.p.28473
 + ID_nfl.p.28474 + ID_nfl.p.28477 + ID_nfl.p.28482 + ID_nfl.p.28493
 + ID_nfl.p.28495 + ID_nfl.p.28505 + ID_nfl.p.28513 + ID_nfl.p.28514
 + ID_nfl.p.28531 + ID_nfl.p.28534 + ID_nfl.p.28535 + ID_nfl.p.28545
 + ID_nfl.p.28548 + ID_nfl.p.28559 + ID_nfl.p.28718 + ID_nfl.p.28730
 + ID_nfl.p.28800 + ID_nfl.p.28887 + ID_nfl.p.28974 + ID_nfl.p.28990
 + ID_nfl.p.29070 + ID_nfl.p.29102 + ID_nfl.p.29235 + ID_nfl.p.29238
 + ID_nfl.p.29257 + ID_nfl.p.29260 + ID_nfl.p.29279 + ID_nfl.p.29281
 + ID_nfl.p.29288 + ID_nfl.p.29307 + ID_nfl.p.29315 + ID_nfl.p.29328
 + ID_nfl.p.29344 + ID_nfl.p.29351 + ID_nfl.p.29360 + ID_nfl.p.29369
 + ID_nfl.p.29374 + ID_nfl.p.29383 + ID_nfl.p.29390 + ID_nfl.p.29399
 + ID_nfl.p.29406 + ID_nfl.p.29420 + ID_nfl.p.29431 + ID_nfl.p.29433
 + ID_nfl.p.29440 + ID_nfl.p.29441 + ID_nfl.p.29470 + ID_nfl.p.29560
 + ID_nfl.p.29609 + ID_nfl.p.29631 + ID_nfl.p.29650 + ID_nfl.p.29666
 + ID_nfl.p.29700 + ID_nfl.p.29703 + ID_nfl.p.29719 + ID_nfl.p.29785
 + ID_nfl.p.29906 + ID_nfl.p.29913 + ID_nfl.p.29951 + ID_nfl.p.29958
 + ID_nfl.p.29973 + ID_nfl.p.30023 + ID_nfl.p.30112 + ID_nfl.p.30115
 + ID_nfl.p.30118 + ID_nfl.p.30121 + ID_nfl.p.30123 + ID_nfl.p.30132
 + ID_nfl.p.30153 + ID_nfl.p.30154 + ID_nfl.p.30157 + ID_nfl.p.30158
 + ID_nfl.p.30161 + ID_nfl.p.30180 + ID_nfl.p.30182 + ID_nfl.p.30185
 + ID_nfl.p.30197 + ID_nfl.p.30199 + ID_nfl.p.30209 + ID_nfl.p.30213
 + ID_nfl.p.30219 + ID_nfl.p.30230 + ID_nfl.p.30232 + ID_nfl.p.30246
 + ID_nfl.p.30247 + ID_nfl.p.30253 + ID_nfl.p.30256 + ID_nfl.p.30263
 + ID_nfl.p.30269 + ID_nfl.p.30285 + ID_nfl.p.30292 + ID_nfl.p.30295
 + ID_nfl.p.30305 + ID_nfl.p.30373 + ID_nfl.p.30487 + ID_nfl.p.30502
 + ID_nfl.p.30523 + ID_nfl.p.30571 + ID_nfl.p.30577 + ID_nfl.p.30592
 + ID_nfl.p.30614 + ID_nfl.p.30627 + ID_nfl.p.30656 + ID_nfl.p.30777
 + ID_nfl.p.30784 + ID_nfl.p.30788 + ID_nfl.p.30850 + ID_nfl.p.30860
 + ID_nfl.p.30891 + ID_nfl.p.30959 + ID_nfl.p.30971 + ID_nfl.p.30972
 + ID_nfl.p.30973 + ID_nfl.p.30977 + ID_nfl.p.30980 + ID_nfl.p.30994
 + ID_nfl.p.30995 + ID_nfl.p.30996 + ID_nfl.p.31005 + ID_nfl.p.31008
 + ID_nfl.p.31012 + ID_nfl.p.31017 + ID_nfl.p.31021 + ID_nfl.p.31030
 + ID_nfl.p.31046 + ID_nfl.p.31051 + ID_nfl.p.31056 + ID_nfl.p.31061
 + ID_nfl.p.31071 + ID_nfl.p.31074 + ID_nfl.p.31075 + ID_nfl.p.31093
 + ID_nfl.p.31100 + ID_nfl.p.31102 + ID_nfl.p.31107 + ID_nfl.p.31114
 + ID_nfl.p.31127 + ID_nfl.p.31135 + ID_nfl.p.31139 + ID_nfl.p.31144
 + ID_nfl.p.31145 + ID_nfl.p.31148 + ID_nfl.p.31155 + ID_nfl.p.31164
 + ID_nfl.p.31178 + ID_nfl.p.31180 + ID_nfl.p.31194 + ID_nfl.p.31207
 + ID_nfl.p.31223 + ID_nfl.p.31228 + ID_nfl.p.31257 + ID_nfl.p.31268
 + ID_nfl.p.31301 + ID_nfl.p.31302 + ID_nfl.p.31320 + ID_nfl.p.31347
 + ID_nfl.p.31424 + ID_nfl.p.31431 + ID_nfl.p.31457 + ID_nfl.p.31496
 + ID_nfl.p.31500 + ID_nfl.p.31519 + ID_nfl.p.31557 + ID_nfl.p.31588
 + ID_nfl.p.31601 + ID_nfl.p.31749 + ID_nfl.p.31769 + ID_nfl.p.31833
 + ID_nfl.p.31838 + ID_nfl.p.31840 + ID_nfl.p.31882 + ID_nfl.p.31883
 + ID_nfl.p.31884 + ID_nfl.p.31888 + ID_nfl.p.31894 + ID_nfl.p.31898
 + ID_nfl.p.31902 + ID_nfl.p.31905 + ID_nfl.p.31906 + ID_nfl.p.31907
 + ID_nfl.p.31925 + ID_nfl.p.31928 + ID_nfl.p.31932 + ID_nfl.p.31934
 + ID_nfl.p.31936 + ID_nfl.p.31945 + ID_nfl.p.31953 + ID_nfl.p.31958
 + ID_nfl.p.31960 + ID_nfl.p.31973 + ID_nfl.p.31984 + ID_nfl.p.31986
 + ID_nfl.p.32003 + ID_nfl.p.32006 + ID_nfl.p.32008 + ID_nfl.p.32014
 + ID_nfl.p.32018 + ID_nfl.p.32026 + ID_nfl.p.32029 + ID_nfl.p.32040
 + ID_nfl.p.32046 + ID_nfl.p.32060 + ID_nfl.p.32065 + ID_nfl.p.32066
 + ID_nfl.p.32079 + ID_nfl.p.32123 + ID_nfl.p.32141 + ID_nfl.p.32272
 + ID_nfl.p.32273 + ID_nfl.p.32292 + ID_nfl.p.32398 + ID_nfl.p.32439
 + ID_nfl.p.32464 + ID_nfl.p.32469 + ID_nfl.p.32523 + ID_nfl.p.32556
 + ID_nfl.p.32559 + ID_nfl.p.32581 + ID_nfl.p.32608 + ID_nfl.p.5479
 + ID_nfl.p.6405 + ID_nfl.p.6760 + ID_nfl.p.6762 + ID_nfl.p.6849
 + ID_nfl.p.7200 + ID_nfl.p.7241 + ID_nfl.p.7426 + ID_nfl.p.7777
 + ID_nfl.p.8263 + ID_nfl.p.8285 + ID_nfl.p.8497 + ID_nfl.p.8544
 + ID_nfl.p.8780 + ID_nfl.p.8834 + ID_nfl.p.9037 + ID_nfl.p.9317
 + ID_nfl.p.9353 + ID_nfl.p.9547 + ID_nfl.p.9678 + ID_nfl.t.1 + ID_nfl.t.10
 + ID_nfl.t.11 + ID_nfl.t.12 + ID_nfl.t.14 + ID_nfl.t.15 + ID_nfl.t.16
 + ID_nfl.t.18 + ID_nfl.t.19 + ID_nfl.t.2 + ID_nfl.t.20 + ID_nfl.t.22
 + ID_nfl.t.23 + ID_nfl.t.27 + ID_nfl.t.29 + ID_nfl.t.3 + ID_nfl.t.33
 + ID_nfl.t.4 + ID_nfl.t.5 + ID_nfl.t.6 + ID_nfl.t.8 + ID_nfl.t.9 = 9
_C2: ID_nfl.p.24822 + ID_nfl.p.25712 + ID_nfl.p.25718 + ID_nfl.p.25812
 + ID_nfl.p.26547 + ID_nfl.p.26721 + ID_nfl.p.26949 + ID_nfl.p.27531
 + ID_nfl.p.27560 + ID_nfl.p.27711 + ID_nfl.p.27742 + ID_nfl.p.28389
 + ID_nfl.p.28390 + ID_nfl.p.28477 + ID_nfl.p.28535 + ID_nfl.p.29235
 + ID_nfl.p.29260 + ID_nfl.p.29369 + ID_nfl.p.29441 + ID_nfl.p.30115
 + ID_nfl.p.30123 + ID_nfl.p.30614 + ID_nfl.p.30788 + ID_nfl.p.30971
 + ID_nfl.p.30973 + ID_nfl.p.30977 + ID_nfl.p.30980 + ID_nfl.p.31046
 + ID_nfl.p.31301 + ID_nfl.p.31431 + ID_nfl.p.31833 + ID_nfl.p.31838
 + ID_nfl.p.31932 + ID_nfl.p.31936 + ID_nfl.p.32029 + ID_nfl.p.32272
 + ID_nfl.p.32464 + ID_nfl.p.32581 + ID_nfl.p.5479 + ID_nfl.p.6760
 + ID_nfl.p.6849 + ID_nfl.p.7200 + ID_nfl.p.7426 + ID_nfl.p.8544
 + ID_nfl.p.8780 + ID_nfl.p.8834 + ID_nfl.p.9547 + ID_nfl.p.9678 = 1
_C3: ID_nfl.t.1 + ID_nfl.t.10 + ID_nfl.t.11 + ID_nfl.t.12 + ID_nfl.t.14
 + ID_nfl.t.15 + ID_nfl.t.16 + ID_nfl.t.18 + ID_nfl.t.19 + ID_nfl.t.2
 + ID_nfl.t.20 + ID_nfl.t.22 + ID_nfl.t.23 + ID_nfl.t.27 + ID_nfl.t.29
 + ID_nfl.t.3 + ID_nfl.t.33 + ID_nfl.t.4 + ID_nfl.t.5 + ID_nfl.t.6
 + ID_nfl.t.8 + ID_nfl.t.9 = 1
_C4: ID_nfl.p.24815 + ID_nfl.p.24913 + ID_nfl.p.24923 + ID_nfl.p.24936
 + ID_nfl.p.25158 + ID_nfl.p.26535 + ID_nfl.p.26660 + ID_nfl.p.26804
 + ID_nfl.p.26805 + ID_nfl.p.27135 + ID_nfl.p.27631 + ID_nfl.p.28115
 + ID_nfl.p.28141 + ID_nfl.p.28223 + ID_nfl.p.28398 + ID_nfl.p.28424
 + ID_nfl.p.28442 + ID_nfl.p.28474 + ID_nfl.p.28482 + ID_nfl.p.28513
 + ID_nfl.p.28514 + ID_nfl.p.28718 + ID_nfl.p.28887 + ID_nfl.p.28990
 + ID_nfl.p.29238 + ID_nfl.p.29279 + ID_nfl.p.29307 + ID_nfl.p.29383
 + ID_nfl.p.29390 + ID_nfl.p.29431 + ID_nfl.p.29470 + ID_nfl.p.29560
 + ID_nfl.p.29650 + ID_nfl.p.29700 + ID_nfl.p.29906 + ID_nfl.p.29951
 + ID_nfl.p.30121 + ID_nfl.p.30154 + ID_nfl.p.30161 + ID_nfl.p.30180
 + ID_nfl.p.30199 + ID_nfl.p.30232 + ID_nfl.p.30247 + ID_nfl.p.30253
 + ID_nfl.p.30256 + ID_nfl.p.30269 + ID_nfl.p.30292 + ID_nfl.p.30295
 + ID_nfl.p.30305 + ID_nfl.p.30592 + ID_nfl.p.30850 + ID_nfl.p.30860
 + ID_nfl.p.30972 + ID_nfl.p.31005 + ID_nfl.p.31008 + ID_nfl.p.31074
 + ID_nfl.p.31100 + ID_nfl.p.31135 + ID_nfl.p.31139 + ID_nfl.p.31145
 + ID_nfl.p.31207 + ID_nfl.p.31228 + ID_nfl.p.31302 + ID_nfl.p.31424
 + ID_nfl.p.31457 + ID_nfl.p.31500 + ID_nfl.p.31902 + ID_nfl.p.31905
 + ID_nfl.p.31906 + ID_nfl.p.31934 + ID_nfl.p.31945 + ID_nfl.p.31960
 + ID_nfl.p.31984 + ID_nfl.p.31986 + ID_nfl.p.32014 + ID_nfl.p.32018
 + ID_nfl.p.32026 + ID_nfl.p.32046 + ID_nfl.p.32065 + ID_nfl.p.32066
 + ID_nfl.p.32439 + ID_nfl.p.32559 + ID_nfl.p.32608 + ID_nfl.p.7241
 + ID_nfl.p.9317 >= 2
_C5: ID_nfl.p.24815 + ID_nfl.p.24913 + ID_nfl.p.24923 + ID_nfl.p.24936
 + ID_nfl.p.25158 + ID_nfl.p.26535 + ID_nfl.p.26660 + ID_nfl.p.26804
 + ID_nfl.p.26805 + ID_nfl.p.27135 + ID_nfl.p.27631 + ID_nfl.p.28115
 + ID_nfl.p.28141 + ID_nfl.p.28223 + ID_nfl.p.28398 + ID_nfl.p.28424
 + ID_nfl.p.28442 + ID_nfl.p.28474 + ID_nfl.p.28482 + ID_nfl.p.28513
 + ID_nfl.p.28514 + ID_nfl.p.28718 + ID_nfl.p.28887 + ID_nfl.p.28990
 + ID_nfl.p.29238 + ID_nfl.p.29279 + ID_nfl.p.29307 + ID_nfl.p.29383
 + ID_nfl.p.29390 + ID_nfl.p.29431 + ID_nfl.p.29470 + ID_nfl.p.29560
 + ID_nfl.p.29650 + ID_nfl.p.29700 + ID_nfl.p.29906 + ID_nfl.p.29951
 + ID_nfl.p.30121 + ID_nfl.p.30154 + ID_nfl.p.30161 + ID_nfl.p.30180
 + ID_nfl.p.30199 + ID_nfl.p.30232 + ID_nfl.p.30247 + ID_nfl.p.30253
 + ID_nfl.p.30256 + ID_nfl.p.30269 + ID_nfl.p.30292 + ID_nfl.p.30295
 + ID_nfl.p.30305 + ID_nfl.p.30592 + ID_nfl.p.30850 + ID_nfl.p.30860
 + ID_nfl.p.30972 + ID_nfl.p.31005 + ID_nfl.p.31008 + ID_nfl.p.31074
 + ID_nfl.p.31100 + ID_nfl.p.31135 + ID_nfl.p.31139 + ID_nfl.p.31145
 + ID_nfl.p.31207 + ID_nfl.p.31228 + ID_nfl.p.31302 + ID_nfl.p.31424
 + ID_nfl.p.31457 + ID_nfl.p.31500 + ID_nfl.p.31902 + ID_nfl.p.31905
 + ID_nfl.p.31906 + ID_nfl.p.31934 + ID_nfl.p.31945 + ID_nfl.p.31960
 + ID_nfl.p.31984 + ID_nfl.p.31986 + ID_nfl.p.32014 + ID_nfl.p.32018
 + ID_nfl.p.32026 + ID_nfl.p.32046 + ID_nfl.p.32065 + ID_nfl.p.32066
 + ID_nfl.p.32439 + ID_nfl.p.32559 + ID_nfl.p.32608 + ID_nfl.p.7241
 + ID_nfl.p.9317 <= 3
_C6: ID_nfl.p.24035 + ID_nfl.p.24063 + ID_nfl.p.24793 + ID_nfl.p.24851
 + ID_nfl.p.25828 + ID_nfl.p.25876 + ID_nfl.p.26060 + ID_nfl.p.26631
 + ID_nfl.p.26652 + ID_nfl.p.26664 + ID_nfl.p.27532 + ID_nfl.p.27535
 + ID_nfl.p.27540 + ID_nfl.p.27581 + ID_nfl.p.27584 + ID_nfl.p.27589
 + ID_nfl.p.27591 + ID_nfl.p.27618 + ID_nfl.p.27619 + ID_nfl.p.27670
 + ID_nfl.p.27826 + ID_nfl.p.27874 + ID_nfl.p.28026 + ID_nfl.p.28046
 + ID_nfl.p.28214 + ID_nfl.p.28234 + ID_nfl.p.28402 + ID_nfl.p.28414
 + ID_nfl.p.28425 + ID_nfl.p.28493 + ID_nfl.p.28495 + ID_nfl.p.28534
 + ID_nfl.p.28730 + ID_nfl.p.28800 + ID_nfl.p.28974 + ID_nfl.p.29070
 + ID_nfl.p.29257 + ID_nfl.p.29281 + ID_nfl.p.29288 + ID_nfl.p.29351
 + ID_nfl.p.29360 + ID_nfl.p.29374 + ID_nfl.p.29399 + ID_nfl.p.29406
 + ID_nfl.p.29420 + ID_nfl.p.29433 + ID_nfl.p.29440 + ID_nfl.p.29609
 + ID_nfl.p.29631 + ID_nfl.p.29703 + ID_nfl.p.29719 + ID_nfl.p.29785
 + ID_nfl.p.29958 + ID_nfl.p.29973 + ID_nfl.p.30023 + ID_nfl.p.30118
 + ID_nfl.p.30153 + ID_nfl.p.30182 + ID_nfl.p.30185 + ID_nfl.p.30197
 + ID_nfl.p.30209 + ID_nfl.p.30219 + ID_nfl.p.30230 + ID_nfl.p.30246
 + ID_nfl.p.30285 + ID_nfl.p.30487 + ID_nfl.p.30502 + ID_nfl.p.30656
 + ID_nfl.p.30959 + ID_nfl.p.30994 + ID_nfl.p.30996 + ID_nfl.p.31017
 + ID_nfl.p.31021 + ID_nfl.p.31030 + ID_nfl.p.31051 + ID_nfl.p.31061
 + ID_nfl.p.31075 + ID_nfl.p.31102 + ID_nfl.p.31114 + ID_nfl.p.31144
 + ID_nfl.p.31148 + ID_nfl.p.31155 + ID_nfl.p.31164 + ID_nfl.p.31178
 + ID_nfl.p.31180 + ID_nfl.p.31194 + ID_nfl.p.31223 + ID_nfl.p.31268
 + ID_nfl.p.31320 + ID_nfl.p.31347 + ID_nfl.p.31496 + ID_nfl.p.31557
 + ID_nfl.p.31588 + ID_nfl.p.31601 + ID_nfl.p.31769 + ID_nfl.p.31883
 + ID_nfl.p.31888 + ID_nfl.p.31894 + ID_nfl.p.31898 + ID_nfl.p.31925
 + ID_nfl.p.31958 + ID_nfl.p.32003 + ID_nfl.p.32006 + ID_nfl.p.32040
 + ID_nfl.p.32079 + ID_nfl.p.32123 + ID_nfl.p.32141 + ID_nfl.p.32292
 + ID_nfl.p.32398 + ID_nfl.p.32469 + ID_nfl.p.32523 + ID_nfl.p.32556
 + ID_nfl.p.6762 + ID_nfl.p.8263 + ID_nfl.p.9037 >= 3
_C7: ID_nfl.p.24035 + ID_nfl.p.24063 + ID_nfl.p.24793 + ID_nfl.p.24851
 + ID_nfl.p.25828 + ID_nfl.p.25876 + ID_nfl.p.26060 + ID_nfl.p.26631
 + ID_nfl.p.26652 + ID_nfl.p.26664 + ID_nfl.p.27532 + ID_nfl.p.27535
 + ID_nfl.p.27540 + ID_nfl.p.27581 + ID_nfl.p.27584 + ID_nfl.p.27589
 + ID_nfl.p.27591 + ID_nfl.p.27618 + ID_nfl.p.27619 + ID_nfl.p.27670
 + ID_nfl.p.27826 + ID_nfl.p.27874 + ID_nfl.p.28026 + ID_nfl.p.28046
 + ID_nfl.p.28214 + ID_nfl.p.28234 + ID_nfl.p.28402 + ID_nfl.p.28414
 + ID_nfl.p.28425 + ID_nfl.p.28493 + ID_nfl.p.28495 + ID_nfl.p.28534
 + ID_nfl.p.28730 + ID_nfl.p.28800 + ID_nfl.p.28974 + ID_nfl.p.29070
 + ID_nfl.p.29257 + ID_nfl.p.29281 + ID_nfl.p.29288 + ID_nfl.p.29351
 + ID_nfl.p.29360 + ID_nfl.p.29374 + ID_nfl.p.29399 + ID_nfl.p.29406
 + ID_nfl.p.29420 + ID_nfl.p.29433 + ID_nfl.p.29440 + ID_nfl.p.29609
 + ID_nfl.p.29631 + ID_nfl.p.29703 + ID_nfl.p.29719 + ID_nfl.p.29785
 + ID_nfl.p.29958 + ID_nfl.p.29973 + ID_nfl.p.30023 + ID_nfl.p.30118
 + ID_nfl.p.30153 + ID_nfl.p.30182 + ID_nfl.p.30185 + ID_nfl.p.30197
 + ID_nfl.p.30209 + ID_nfl.p.30219 + ID_nfl.p.30230 + ID_nfl.p.30246
 + ID_nfl.p.30285 + ID_nfl.p.30487 + ID_nfl.p.30502 + ID_nfl.p.30656
 + ID_nfl.p.30959 + ID_nfl.p.30994 + ID_nfl.p.30996 + ID_nfl.p.31017
 + ID_nfl.p.31021 + ID_nfl.p.31030 + ID_nfl.p.31051 + ID_nfl.p.31061
 + ID_nfl.p.31075 + ID_nfl.p.31102 + ID_nfl.p.31114 + ID_nfl.p.31144
 + ID_nfl.p.31148 + ID_nfl.p.31155 + ID_nfl.p.31164 + ID_nfl.p.31178
 + ID_nfl.p.31180 + ID_nfl.p.31194 + ID_nfl.p.31223 + ID_nfl.p.31268
 + ID_nfl.p.31320 + ID_nfl.p.31347 + ID_nfl.p.31496 + ID_nfl.p.31557
 + ID_nfl.p.31588 + ID_nfl.p.31601 + ID_nfl.p.31769 + ID_nfl.p.31883
 + ID_nfl.p.31888 + ID_nfl.p.31894 + ID_nfl.p.31898 + ID_nfl.p.31925
 + ID_nfl.p.31958 + ID_nfl.p.32003 + ID_nfl.p.32006 + ID_nfl.p.32040
 + ID_nfl.p.32079 + ID_nfl.p.32123 + ID_nfl.p.32141 + ID_nfl.p.32292
 + ID_nfl.p.32398 + ID_nfl.p.32469 + ID_nfl.p.32523 + ID_nfl.p.32556
 + ID_nfl.p.6762 + ID_nfl.p.8263 + ID_nfl.p.9037 <= 4
_C8: ID_nfl.p.24070 + ID_nfl.p.24830 + ID_nfl.p.24891 + ID_nfl.p.24946
 + ID_nfl.p.24961 + ID_nfl.p.25370 + ID_nfl.p.25838 + ID_nfl.p.26016
 + ID_nfl.p.26050 + ID_nfl.p.26644 + ID_nfl.p.26678 + ID_nfl.p.26686
 + ID_nfl.p.26824 + ID_nfl.p.26950 + ID_nfl.p.27174 + ID_nfl.p.27299
 + ID_nfl.p.27494 + ID_nfl.p.27538 + ID_nfl.p.27648 + ID_nfl.p.27789
 + ID_nfl.p.28267 + ID_nfl.p.28365 + ID_nfl.p.28443 + ID_nfl.p.28456
 + ID_nfl.p.28473 + ID_nfl.p.28505 + ID_nfl.p.28531 + ID_nfl.p.28545
 + ID_nfl.p.28548 + ID_nfl.p.28559 + ID_nfl.p.29102 + ID_nfl.p.29315
 + ID_nfl.p.29328 + ID_nfl.p.29344 + ID_nfl.p.29666 + ID_nfl.p.29913
 + ID_nfl.p.30112 + ID_nfl.p.30132 + ID_nfl.p.30157 + ID_nfl.p.30158
 + ID_nfl.p.30213 + ID_nfl.p.30263 + ID_nfl.p.30373 + ID_nfl.p.30523
 + ID_nfl.p.30571 + ID_nfl.p.30577 + ID_nfl.p.30627 + ID_nfl.p.30777
 + ID_nfl.p.30784 + ID_nfl.p.30891 + ID_nfl.p.30995 + ID_nfl.p.31012
 + ID_nfl.p.31056 + ID_nfl.p.31071 + ID_nfl.p.31093 + ID_nfl.p.31107
 + ID_nfl.p.31127 + ID_nfl.p.31257 + ID_nfl.p.31519 + ID_nfl.p.31749
 + ID_nfl.p.31840 + ID_nfl.p.31882 + ID_nfl.p.31884 + ID_nfl.p.31907
 + ID_nfl.p.31928 + ID_nfl.p.31953 + ID_nfl.p.31973 + ID_nfl.p.32008
 + ID_nfl.p.32060 + ID_nfl.p.32273 + ID_nfl.p.6405 + ID_nfl.p.7777
 + ID_nfl.p.8285 + ID_nfl.p.8497 + ID_nfl.p.9353 >= 2
_C9: ID_nfl.p.24070 + ID_nfl.p.24830 + ID_nfl.p.24891 + ID_nfl.p.24946
 + ID_nfl.p.24961 + ID_nfl.p.25370 + ID_nfl.p.25838 + ID_nfl.p.26016
 + ID_nfl.p.26050 + ID_nfl.p.26644 + ID_nfl.p.26678 + ID_nfl.p.26686
 + ID_nfl.p.26824 + ID_nfl.p.26950 + ID_nfl.p.27174 + ID_nfl.p.27299
 + ID_nfl.p.27494 + ID_nfl.p.27538 + ID_nfl.p.27648 + ID_nfl.p.27789
 + ID_nfl.p.28267 + ID_nfl.p.28365 + ID_nfl.p.28443 + ID_nfl.p.28456
 + ID_nfl.p.28473 + ID_nfl.p.28505 + ID_nfl.p.28531 + ID_nfl.p.28545
 + ID_nfl.p.28548 + ID_nfl.p.28559 + ID_nfl.p.29102 + ID_nfl.p.29315
 + ID_nfl.p.29328 + ID_nfl.p.29344 + ID_nfl.p.29666 + ID_nfl.p.29913
 + ID_nfl.p.30112 + ID_nfl.p.30132 + ID_nfl.p.30157 + ID_nfl.p.30158
 + ID_nfl.p.30213 + ID_nfl.p.30263 + ID_nfl.p.30373 + ID_nfl.p.30523
 + ID_nfl.p.30571 + ID_nfl.p.30577 + ID_nfl.p.30627 + ID_nfl.p.30777
 + ID_nfl.p.30784 + ID_nfl.p.30891 + ID_nfl.p.30995 + ID_nfl.p.31012
 + ID_nfl.p.31056 + ID_nfl.p.31071 + ID_nfl.p.31093 + ID_nfl.p.31107
 + ID_nfl.p.31127 + ID_nfl.p.31257 + ID_nfl.p.31519 + ID_nfl.p.31749
 + ID_nfl.p.31840 + ID_nfl.p.31882 + ID_nfl.p.31884 + ID_nfl.p.31907
 + ID_nfl.p.31928 + ID_nfl.p.31953 + ID_nfl.p.31973 + ID_nfl.p.32008
 + ID_nfl.p.32060 + ID_nfl.p.32273 + ID_nfl.p.6405 + ID_nfl.p.7777
 + ID_nfl.p.8285 + ID_nfl.p.8497 + ID_nfl.p.9353 <= 3
Binaries
ID_nfl.p.24035
ID_nfl.p.24063
ID_nfl.p.24070
ID_nfl.p.24793
ID_nfl.p.24815
ID_nfl.p.24822
ID_nfl.p.24830
ID_nfl.p.24851
ID_nfl.p.24891
ID_nfl.p.24913
ID_nfl.p.24923
ID_nfl.p.24936
ID_nfl.p.24946
ID_nfl.p.24961
ID_nfl.p.25158
ID_nfl.p.25370
ID_nfl.p.25712
ID_nfl.p.25718
ID_nfl.p.25812
ID_nfl.p.25828
ID_nfl.p.25838
ID_nfl.p.25876
ID_nfl.p.26016
ID_nfl.p.26050
ID_nfl.p.26060
ID_nfl.p.26535
ID_nfl.p.26547
ID_nfl.p.26631
ID_nfl.p.26644
ID_nfl.p.26652
ID_nfl.p.26660
ID_nfl.p.26664
ID_nfl.p.26678
ID_nfl.p.26686
ID_nfl.p.26721
ID_nfl.p.26804
ID_nfl.p.26805
ID_nfl.p.26824
ID_nfl.p.26949
ID_nfl.p.26950
ID_nfl.p.27135
ID_nfl.p.27174
ID_nfl.p.27299
ID_nfl.p.27494
ID_nfl.p.27531
ID_nfl.p.27532
ID_nfl.p.27535
ID_nfl.p.27538
ID_nfl.p.27540
ID_nfl.p.27560
ID_nfl.p.27581
ID_nfl.p.27584
ID_nfl.p.27589
ID_nfl.p.27591
ID_nfl.p.27618
ID_nfl.p.27619
ID_nfl.p.27631
ID_nfl.p.27648
ID_nfl.p.27670
ID_nfl.p.27711
ID_nfl.p.27742
ID_nfl.p.27789
ID_nfl.p.27826
ID_nfl.p.27874
ID_nfl.p.28026
ID_nfl.p.28046
ID_nfl.p.28115
ID_nfl.p.28141
ID_nfl.p.28214
ID_nfl.p.28223
ID_nfl.p.28234
ID_nfl.p.28267
ID_nfl.p.28365
ID_nfl.p.28389
ID_nfl.p.28390
ID_nfl.p.28398
ID_nfl.p.28402
ID_nfl.p.28414
ID_nfl.p.28424
ID_nfl.p.28425
ID_nfl.p.28442
ID_nfl.p.28443
ID_nfl.p.28456
ID_nfl.p.28473
ID_nfl.p.28474
ID_nfl.p.28477
ID_nfl.p.28482
ID_nfl.p.28493
ID_nfl.p.28495
ID_nfl.p.28505
ID_nfl.p.28513
ID_nfl.p.28514
ID_nfl.p.28531
ID_nfl.p.28534
ID_nfl.p.28535
ID_nfl.p.28545
ID_nfl.p.28548
ID_nfl.p.28559
ID_nfl.p.28718
ID_nfl.p.28730
ID_nfl.p.28800
ID_nfl.p.28887
ID_nfl.p.28974
ID_nfl.p.28990
ID_nfl.p.29070
ID_nfl.p.29102
ID_nfl.p.29235
ID_nfl.p.29238
ID_nfl.p.29257
ID_nfl.p.29260
ID_nfl.p.29279
ID_nfl.p.29281
ID_nfl.p.29288
ID_nfl.p.29307
ID_nfl.p.29315
ID_nfl.p.29328
ID_nfl.p.29344
ID_nfl.p.29351
ID_nfl.p.29360
ID_nfl.p.29369
ID_nfl.p.29374
ID_nfl.p.29383
ID_nfl.p.29390
ID_nfl.p.29399
ID_nfl.p.29406
ID_nfl.p.29420
ID_nfl.p.29431
ID_nfl.p.29433
ID_nfl.p.29440
ID_nfl.p.29441
ID_nfl.p.29470
ID_nfl.p.29560
ID_nfl.p.29609
ID_nfl.p.29631
ID_nfl.p.29650
ID_nfl.p.29666
ID_nfl.p.29700
ID_nfl.p.29703
ID_nfl.p.29719
ID_nfl.p.29785
ID_nfl.p.29906
ID_nfl.p.29913
ID_nfl.p.29951
ID_nfl.p.29958
ID_nfl.p.29973
ID_nfl.p.30023
ID_nfl.p.30112
ID_nfl.p.30115
ID_nfl.p.30118
ID_nfl.p.30121
ID_nfl.p.30123
ID_nfl.p.30132
ID_nfl.p.30153
ID_nfl.p.30154
ID_nfl.p.30157
ID_nfl.p.30158
ID_nfl.p.30161
ID_nfl.p.30180
ID_nfl.p.30182
ID_nfl.p.30185
ID_nfl.p.30197
ID_nfl.p.30199
ID_nfl.p.30209
ID_nfl.p.30213
ID_nfl.p.30219
ID_nfl.p.30230
ID_nfl.p.30232
ID_nfl.p.30246
ID_nfl.p.30247
ID_nfl.p.30253
ID_nfl.p.30256
ID_nfl.p.30263
ID_nfl.p.30269
ID_nfl.p.30285
ID_nfl.p.30292
ID_nfl.p.30295
ID_nfl.p.30305
ID_nfl.p.30373
ID_nfl.p.30487
ID_nfl.p.30502
ID_nfl.p.30523
ID_nfl.p.30571
ID_nfl.p.30577
ID_nfl.p.30592
ID_nfl.p.30614
ID_nfl.p.30627
ID_nfl.p.30656
ID_nfl.p.30777
ID_nfl.p.30784
ID_nfl.p.30788
ID_nfl.p.30850
ID_nfl.p.30860
ID_nfl.p.30891
ID_nfl.p.30959
ID_nfl.p.30971
ID_nfl.p.30972
ID_nfl.p.30973
ID_nfl.p.30977
ID_nfl.p.30980
ID_nfl.p.30994
ID_nfl.p.30995
ID_nfl.p.30996
ID_nfl.p.31005
ID_nfl.p.31008
ID_nfl.p.31012
ID_nfl.p.31017
ID_nfl.p.31021
ID_nfl.p.31030
ID_nfl.p.31046
ID_nfl.p.31051
ID_nfl.p.31056
ID_nfl.p.31061
ID_nfl.p.31071
ID_nfl.p.31074
ID_nfl.p.31075
ID_nfl.p.31093
ID_nfl.p.31100
ID_nfl.p.31102
ID_nfl.p.31107
ID_nfl.p.31114
ID_nfl.p.31127
ID_nfl.p.31135
ID_nfl.p.31139
ID_nfl.p.31144
ID_nfl.p.31145
ID_nfl.p.31148
ID_nfl.p.31155
ID_nfl.p.31164
ID_nfl.p.31178
ID_nfl.p.31180
ID_nfl.p.31194
ID_nfl.p.31207
ID_nfl.p.31223
ID_nfl.p.31228
ID_nfl.p.31257
ID_nfl.p.31268
ID_nfl.p.31301
ID_nfl.p.31302
ID_nfl.p.31320
ID_nfl.p.31347
ID_nfl.p.31424
ID_nfl.p.31431
ID_nfl.p.31457
ID_nfl.p.31496
ID_nfl.p.31500
ID_nfl.p.31519
ID_nfl.p.31557
ID_nfl.p.31588
ID_nfl.p.31601
ID_nfl.p.31749
ID_nfl.p.31769
ID_nfl.p.31833
ID_nfl.p.31838
ID_nfl.p.31840
ID_nfl.p.31882
ID_nfl.p.31883
ID_nfl.p.31884
ID_nfl.p.31888
ID_nfl.p.31894
ID_nfl.p.31898
ID_nfl.p.31902
ID_nfl.p.31905
ID_nfl.p.31906
ID_nfl.p.31907
ID_nfl.p.31925
ID_nfl.p.31928
ID_nfl.p.31932
ID_nfl.p.31934
ID_nfl.p.31936
ID_nfl.p.31945
ID_nfl.p.31953
ID_nfl.p.31958
ID_nfl.p.31960
ID_nfl.p.31973
ID_nfl.p.31984
ID_nfl.p.31986
ID_nfl.p.32003
ID_nfl.p.32006
ID_nfl.p.32008
ID_nfl.p.32014
ID_nfl.p.32018
ID_nfl.p.32026
ID_nfl.p.32029
ID_nfl.p.32040
ID_nfl.p.32046
ID_nfl.p.32060
ID_nfl.p.32065
ID_nfl.p.32066
ID_nfl.p.32079
ID_nfl.p.32123
ID_nfl.p.32141
ID_nfl.p.32272
ID_nfl.p.32273
ID_nfl.p.32292
ID_nfl.p.32398
ID_nfl.p.32439
ID_nfl.p.32464
ID_nfl.p.32469
ID_nfl.p.32523
ID_nfl.p.32556
ID_nfl.p.32559
ID_nfl.p.32581
ID_nfl.p.32608
ID_nfl.p.5479
ID_nfl.p.6405
ID_nfl.p.6760
ID_nfl.p.6762
ID_nfl.p.6849
ID_nfl.p.7200
ID_nfl.p.7241
ID_nfl.p.7426
ID_nfl.p.7777
ID_nfl.p.8263
ID_nfl.p.8285
ID_nfl.p.8497
ID_nfl.p.8544
ID_nfl.p.8780
ID_nfl.p.8834
ID_nfl.p.9037
ID_nfl.p.9317
ID_nfl.p.9353
ID_nfl.p.9547
ID_nfl.p.9678
ID_nfl.t.1
ID_nfl.t.10
ID_nfl.t.11
ID_nfl.t.12
ID_nfl.t.14
ID_nfl.t.15
ID_nfl.t.16
ID_nfl.t.18
ID_nfl.t.19
ID_nfl.t.2
ID_nfl.t.20
ID_nfl.t.22
ID_nfl.t.23
ID_nfl.t.27
ID_nfl.t.29
ID_nfl.t.3
ID_nfl.t.33
ID_nfl.t.4
ID_nfl.t.5
ID_nfl.t.6
ID_nfl.t.8
ID_nfl.t.9
End
